# Objective value = 271
WA1n 0
WA1p 0
WA2n 1
WA2p 0
WB1n 0
WB1p 0
WB2n 0
WB2p 1
WC1n 0
WC1p 1
WD1n 1
WD1p 0
WD2n 1
WD2p 0
WE1n 2
WE1p 0
WE2n 1
WE2p 0
WF1n 4
WF1p 0
WG1n 4
WG1p 0
WH1n 4
WH1p 0
WI1n 14
WI1p 0
WI2n 1
WI2p 0
WJ1n 14
WJ1p 0
WJ2n 1
WJ2p 0
WK1n 0
WK1p 14
WK2n 0
WK2p 1
WL1n 0
WL1p 14
WL2n 0
WL2p 1
WM1n 0
WM1p 14
WM2n 0
WM2p 1
WN1n 0
WN1p 14
WN2n 0
WN2p 1
WO1n 0
WO1p 91
WT1n 0
WT1p 60
5 7
a 0
b 0
c 0
d 1
e 1
f 0
g 0
h 0
i 0
j 0
k 0
l 0
m 0
n 0
o 0
p 0
q 1
r 1
s 1
t 1
u 1
v 1
w 1
x 1
y 1
z 1
